r = [
0,24,20,38,3,33,32,14,6,31,39,17,1,4,22,10,35,34,39,7,26,8,30,38,32,14,0
];
p = [
0,5,14,27,9,9,27,2,29,18,27,5,4,4,27,13,19,7,28,16,26,17,20,3,14,15,0
];
e = [
0,11,8,12,16,7,1,15,4,4,13,8,19,12,11,3,18,10,9,19,19,18,16,20,8,12,0
];
d = [
0,295,439,402,433,474,283,295,256,334,434,305,416,387,412,429,319,318,475,294,386,259,329,434,464,289,489
];
d_bar = [
0,298,446,416,438,479,297,296,271,343,448,308,418,389,426,436,329,322,489,302,399,268,339,436,471,297,489
];
w = [
0,3.666666667,1.142857143,0.857142857,3.2,1.4,0.071428571,15,0.266666667,0.444444444,0.928571429,2.666666667,9.5,6,0.785714286,0.428571429,1.8,2.5,0.642857143,2.375,1.461538462,2,1.6,10,1.142857143,1.5,0
];
